
        $ From http://www.csplib.org/Problems/prob009/data/helmut.pdf
        $ Problem number 187
        $ Sequence length : 25
        language ESSENCE' 1.0
        letting sizemaster be 575
        letting sizes be sequence(4,6,14,16,31,39,63,69,74,81,88,103,107,111,115,120,131,132,133,147,156,159,164,198,218)
        